NAME : in_house_7_0
TYPE : TSP
DIMENSION : 7
EDGE_WEIGHT_TYPE : EXPLICIT
EDGE_WEIGHT_FORMAT : UPPER_ROW
COMMENT : INVERSION_SHIFT=4
EDGE_WEIGHT_SECTION
40
21
3
44
22
44
21
48
11
42
40
24
34
21
9
14
17
22
18
28
37
